p edge 100 1485
e 1 3
e 1 12
e 1 13
e 1 25
e 1 26
e 1 30
e 1 33
e 1 35
e 1 40
e 1 54
e 1 56
e 1 61
e 1 64
e 1 67
e 1 68
e 1 76
e 1 77
e 1 78
e 1 82
e 1 83
e 1 86
e 1 87
e 1 88
e 1 91
e 1 92
e 1 97
e 2 5
e 2 9
e 2 20
e 2 24
e 2 35
e 2 36
e 2 37
e 2 41
e 2 42
e 2 43
e 2 48
e 2 50
e 2 51
e 2 52
e 2 53
e 2 56
e 2 60
e 2 66
e 2 67
e 2 78
e 2 86
e 2 88
e 2 91
e 2 93
e 2 95
e 2 99
e 3 4
e 3 11
e 3 12
e 3 14
e 3 21
e 3 24
e 3 25
e 3 26
e 3 27
e 3 31
e 3 32
e 3 33
e 3 35
e 3 38
e 3 45
e 3 48
e 3 49
e 3 51
e 3 53
e 3 64
e 3 65
e 3 70
e 3 72
e 3 73
e 3 78
e 3 79
e 3 80
e 3 82
e 3 84
e 3 92
e 3 93
e 3 97
e 4 5
e 4 6
e 4 7
e 4 13
e 4 17
e 4 19
e 4 23
e 4 27
e 4 32
e 4 34
e 4 38
e 4 40
e 4 42
e 4 46
e 4 49
e 4 50
e 4 53
e 4 57
e 4 59
e 4 62
e 4 63
e 4 67
e 4 68
e 4 69
e 4 72
e 4 76
e 4 78
e 4 80
e 4 81
e 4 82
e 4 88
e 4 89
e 4 93
e 4 97
e 5 6
e 5 7
e 5 8
e 5 12
e 5 14
e 5 15
e 5 18
e 5 26
e 5 29
e 5 31
e 5 34
e 5 36
e 5 44
e 5 57
e 5 64
e 5 65
e 5 66
e 5 69
e 5 70
e 5 73
e 5 74
e 5 76
e 5 88
e 5 91
e 5 96
e 6 17
e 6 18
e 6 22
e 6 28
e 6 36
e 6 38
e 6 43
e 6 46
e 6 52
e 6 55
e 6 57
e 6 59
e 6 60
e 6 61
e 6 62
e 6 65
e 6 69
e 6 71
e 6 72
e 6 76
e 6 79
e 6 81
e 6 85
e 6 91
e 6 93
e 7 10
e 7 13
e 7 22
e 7 24
e 7 26
e 7 35
e 7 38
e 7 42
e 7 54
e 7 55
e 7 57
e 7 61
e 7 62
e 7 65
e 7 71
e 7 73
e 7 75
e 7 82
e 7 88
e 7 91
e 7 92
e 7 96
e 7 100
e 8 12
e 8 19
e 8 27
e 8 31
e 8 33
e 8 34
e 8 37
e 8 38
e 8 45
e 8 46
e 8 48
e 8 50
e 8 55
e 8 56
e 8 59
e 8 61
e 8 65
e 8 67
e 8 69
e 8 70
e 8 71
e 8 83
e 8 89
e 8 91
e 8 93
e 8 94
e 8 97
e 9 10
e 9 12
e 9 21
e 9 22
e 9 26
e 9 28
e 9 39
e 9 42
e 9 43
e 9 44
e 9 46
e 9 52
e 9 54
e 9 55
e 9 56
e 9 57
e 9 59
e 9 63
e 9 65
e 9 76
e 9 77
e 9 78
e 9 82
e 9 83
e 9 86
e 9 87
e 9 90
e 9 91
e 9 92
e 9 93
e 9 99
e 9 100
e 10 12
e 10 20
e 10 21
e 10 22
e 10 23
e 10 29
e 10 31
e 10 32
e 10 33
e 10 34
e 10 40
e 10 43
e 10 46
e 10 48
e 10 49
e 10 50
e 10 53
e 10 54
e 10 57
e 10 59
e 10 68
e 10 72
e 10 73
e 10 75
e 10 82
e 10 86
e 10 87
e 10 88
e 10 89
e 10 92
e 10 95
e 10 96
e 10 100
e 11 17
e 11 24
e 11 26
e 11 27
e 11 34
e 11 41
e 11 48
e 11 53
e 11 55
e 11 58
e 11 62
e 11 63
e 11 66
e 11 69
e 11 72
e 11 73
e 11 77
e 11 78
e 11 79
e 11 87
e 11 94
e 11 99
e 11 100
e 12 15
e 12 21
e 12 23
e 12 25
e 12 28
e 12 29
e 12 31
e 12 39
e 12 42
e 12 43
e 12 44
e 12 50
e 12 55
e 12 58
e 12 59
e 12 61
e 12 66
e 12 67
e 12 70
e 12 78
e 12 85
e 12 93
e 12 97
e 13 21
e 13 25
e 13 26
e 13 30
e 13 34
e 13 36
e 13 37
e 13 38
e 13 40
e 13 42
e 13 46
e 13 47
e 13 49
e 13 53
e 13 54
e 13 57
e 13 58
e 13 59
e 13 74
e 13 75
e 13 77
e 13 79
e 13 86
e 13 87
e 13 88
e 13 90
e 13 95
e 13 96
e 13 97
e 13 100
e 14 23
e 14 24
e 14 32
e 14 33
e 14 34
e 14 36
e 14 37
e 14 38
e 14 39
e 14 40
e 14 41
e 14 48
e 14 49
e 14 61
e 14 63
e 14 64
e 14 65
e 14 69
e 14 71
e 14 73
e 14 76
e 14 77
e 14 78
e 14 85
e 14 89
e 14 90
e 14 93
e 14 94
e 15 26
e 15 28
e 15 34
e 15 39
e 15 44
e 15 51
e 15 52
e 15 53
e 15 65
e 15 66
e 15 70
e 15 71
e 15 78
e 15 80
e 15 83
e 15 86
e 15 87
e 15 88
e 15 93
e 15 95
e 15 97
e 15 98
e 16 24
e 16 28
e 16 29
e 16 31
e 16 33
e 16 34
e 16 44
e 16 46
e 16 52
e 16 58
e 16 60
e 16 74
e 16 86
e 16 88
e 16 91
e 16 93
e 16 94
e 16 98
e 17 18
e 17 19
e 17 23
e 17 28
e 17 29
e 17 33
e 17 35
e 17 37
e 17 41
e 17 45
e 17 47
e 17 48
e 17 52
e 17 54
e 17 57
e 17 64
e 17 68
e 17 71
e 17 73
e 17 74
e 17 75
e 17 76
e 17 84
e 17 88
e 17 92
e 17 93
e 17 94
e 17 95
e 17 96
e 17 98
e 18 19
e 18 20
e 18 21
e 18 23
e 18 30
e 18 32
e 18 33
e 18 34
e 18 42
e 18 47
e 18 49
e 18 50
e 18 52
e 18 55
e 18 57
e 18 60
e 18 65
e 18 70
e 18 74
e 18 78
e 18 84
e 18 96
e 18 98
e 19 23
e 19 24
e 19 26
e 19 31
e 19 36
e 19 39
e 19 40
e 19 50
e 19 54
e 19 55
e 19 60
e 19 63
e 19 65
e 19 68
e 19 72
e 19 74
e 19 77
e 19 82
e 19 83
e 19 86
e 19 92
e 19 93
e 19 94
e 20 23
e 20 24
e 20 27
e 20 29
e 20 35
e 20 36
e 20 37
e 20 39
e 20 41
e 20 48
e 20 50
e 20 51
e 20 52
e 20 53
e 20 54
e 20 60
e 20 63
e 20 65
e 20 66
e 20 67
e 20 71
e 20 72
e 20 77
e 20 83
e 20 88
e 20 91
e 20 98
e 20 99
e 21 24
e 21 26
e 21 27
e 21 28
e 21 29
e 21 30
e 21 32
e 21 33
e 21 34
e 21 38
e 21 40
e 21 43
e 21 44
e 21 48
e 21 51
e 21 52
e 21 55
e 21 56
e 21 60
e 21 66
e 21 68
e 21 73
e 21 75
e 21 77
e 21 80
e 21 82
e 21 84
e 21 86
e 21 87
e 21 89
e 21 91
e 21 92
e 21 95
e 21 98
e 22 24
e 22 28
e 22 32
e 22 33
e 22 34
e 22 38
e 22 43
e 22 46
e 22 49
e 22 52
e 22 54
e 22 57
e 22 59
e 22 61
e 22 63
e 22 65
e 22 66
e 22 73
e 22 76
e 22 78
e 22 87
e 22 88
e 22 90
e 22 93
e 22 94
e 22 95
e 22 97
e 22 99
e 23 24
e 23 32
e 23 36
e 23 39
e 23 41
e 23 42
e 23 47
e 23 52
e 23 54
e 23 55
e 23 61
e 23 69
e 23 71
e 23 79
e 23 82
e 23 84
e 23 85
e 23 87
e 23 90
e 23 91
e 23 93
e 23 95
e 23 98
e 24 26
e 24 32
e 24 35
e 24 40
e 24 42
e 24 45
e 24 47
e 24 55
e 24 57
e 24 60
e 24 62
e 24 65
e 24 69
e 24 70
e 24 79
e 24 87
e 24 91
e 24 92
e 24 96
e 25 34
e 25 35
e 25 36
e 25 37
e 25 39
e 25 43
e 25 51
e 25 56
e 25 57
e 25 58
e 25 59
e 25 60
e 25 64
e 25 67
e 25 75
e 25 76
e 25 79
e 25 80
e 25 83
e 25 89
e 25 91
e 25 94
e 26 28
e 26 29
e 26 32
e 26 35
e 26 40
e 26 43
e 26 45
e 26 46
e 26 50
e 26 51
e 26 59
e 26 63
e 26 64
e 26 67
e 26 69
e 26 72
e 26 76
e 26 77
e 26 81
e 26 84
e 26 85
e 26 87
e 26 89
e 26 90
e 26 93
e 26 98
e 27 29
e 27 30
e 27 32
e 27 34
e 27 39
e 27 49
e 27 51
e 27 57
e 27 65
e 27 67
e 27 71
e 27 74
e 27 78
e 27 79
e 27 81
e 27 82
e 27 88
e 27 95
e 27 97
e 27 100
e 28 32
e 28 36
e 28 37
e 28 38
e 28 41
e 28 54
e 28 56
e 28 59
e 28 61
e 28 63
e 28 65
e 28 71
e 28 79
e 28 80
e 28 85
e 28 91
e 28 93
e 29 35
e 29 39
e 29 42
e 29 43
e 29 44
e 29 45
e 29 49
e 29 51
e 29 54
e 29 57
e 29 61
e 29 65
e 29 71
e 29 76
e 29 78
e 29 80
e 29 81
e 29 83
e 29 86
e 29 88
e 30 31
e 30 34
e 30 35
e 30 36
e 30 45
e 30 50
e 30 54
e 30 56
e 30 59
e 30 62
e 30 64
e 30 69
e 30 71
e 30 73
e 30 74
e 30 75
e 30 80
e 30 81
e 30 88
e 30 91
e 30 96
e 30 98
e 30 99
e 31 37
e 31 40
e 31 41
e 31 50
e 31 51
e 31 56
e 31 57
e 31 59
e 31 61
e 31 63
e 31 66
e 31 74
e 31 83
e 31 85
e 31 86
e 31 90
e 31 91
e 31 92
e 31 95
e 31 96
e 31 98
e 31 100
e 32 33
e 32 39
e 32 40
e 32 41
e 32 45
e 32 48
e 32 51
e 32 58
e 32 59
e 32 60
e 32 61
e 32 62
e 32 74
e 32 77
e 32 87
e 32 88
e 32 94
e 32 95
e 32 98
e 32 99
e 33 36
e 33 37
e 33 39
e 33 41
e 33 42
e 33 46
e 33 53
e 33 56
e 33 59
e 33 63
e 33 64
e 33 69
e 33 70
e 33 76
e 33 80
e 33 82
e 33 84
e 33 90
e 33 95
e 34 35
e 34 36
e 34 37
e 34 39
e 34 41
e 34 42
e 34 46
e 34 52
e 34 54
e 34 55
e 34 65
e 34 68
e 34 69
e 34 70
e 34 73
e 34 78
e 34 81
e 34 82
e 34 83
e 34 86
e 34 87
e 34 88
e 34 92
e 34 93
e 34 94
e 34 97
e 35 36
e 35 39
e 35 43
e 35 44
e 35 46
e 35 48
e 35 51
e 35 54
e 35 55
e 35 58
e 35 60
e 35 67
e 35 68
e 35 70
e 35 78
e 35 82
e 35 86
e 35 88
e 35 92
e 36 39
e 36 44
e 36 45
e 36 63
e 36 67
e 36 68
e 36 73
e 36 74
e 36 80
e 36 84
e 36 85
e 36 86
e 36 89
e 36 91
e 36 92
e 36 94
e 36 95
e 36 97
e 36 99
e 37 43
e 37 44
e 37 46
e 37 47
e 37 48
e 37 49
e 37 50
e 37 53
e 37 58
e 37 74
e 37 85
e 37 90
e 37 92
e 37 95
e 37 98
e 38 40
e 38 46
e 38 47
e 38 54
e 38 57
e 38 63
e 38 68
e 38 73
e 38 74
e 38 80
e 38 81
e 38 82
e 38 84
e 38 92
e 38 96
e 39 40
e 39 42
e 39 44
e 39 48
e 39 52
e 39 53
e 39 58
e 39 60
e 39 62
e 39 66
e 39 70
e 39 71
e 39 83
e 39 84
e 39 85
e 39 86
e 39 87
e 39 96
e 39 97
e 39 98
e 40 42
e 40 46
e 40 53
e 40 64
e 40 67
e 40 70
e 40 71
e 40 75
e 40 79
e 40 82
e 40 86
e 40 87
e 40 89
e 40 98
e 40 100
e 41 46
e 41 47
e 41 48
e 41 52
e 41 56
e 41 59
e 41 62
e 41 64
e 41 65
e 41 69
e 41 70
e 41 79
e 41 80
e 41 93
e 41 97
e 42 50
e 42 52
e 42 59
e 42 68
e 42 78
e 42 82
e 42 87
e 42 88
e 42 89
e 42 91
e 42 93
e 42 94
e 42 96
e 42 97
e 42 98
e 43 44
e 43 45
e 43 49
e 43 50
e 43 53
e 43 55
e 43 57
e 43 60
e 43 64
e 43 65
e 43 68
e 43 75
e 43 79
e 43 82
e 43 83
e 43 93
e 43 94
e 43 95
e 44 45
e 44 49
e 44 52
e 44 53
e 44 58
e 44 59
e 44 64
e 44 65
e 44 66
e 44 78
e 44 83
e 44 84
e 44 86
e 44 87
e 44 88
e 44 92
e 44 96
e 45 46
e 45 48
e 45 50
e 45 54
e 45 57
e 45 61
e 45 63
e 45 68
e 45 73
e 45 79
e 45 86
e 45 88
e 45 94
e 45 96
e 45 99
e 46 47
e 46 59
e 46 61
e 46 62
e 46 68
e 46 71
e 46 75
e 46 76
e 46 78
e 46 83
e 46 86
e 46 88
e 46 93
e 46 98
e 47 51
e 47 52
e 47 60
e 47 68
e 47 71
e 47 72
e 47 78
e 47 80
e 47 81
e 47 83
e 47 84
e 47 87
e 47 88
e 47 93
e 47 98
e 48 49
e 48 51
e 48 53
e 48 55
e 48 63
e 48 71
e 48 72
e 48 82
e 48 83
e 48 86
e 48 88
e 49 51
e 49 53
e 49 58
e 49 60
e 49 61
e 49 67
e 49 70
e 49 76
e 49 79
e 49 83
e 49 98
e 49 100
e 50 62
e 50 63
e 50 67
e 50 70
e 50 73
e 50 76
e 50 77
e 50 80
e 50 81
e 50 84
e 50 87
e 50 92
e 50 93
e 50 95
e 50 100
e 51 53
e 51 63
e 51 67
e 51 68
e 51 70
e 51 72
e 51 73
e 51 76
e 51 78
e 51 81
e 51 84
e 51 86
e 51 88
e 51 92
e 51 96
e 51 99
e 51 100
e 52 56
e 52 57
e 52 63
e 52 65
e 52 66
e 52 68
e 52 72
e 52 81
e 52 85
e 52 90
e 52 92
e 52 93
e 52 94
e 52 99
e 53 57
e 53 58
e 53 60
e 53 62
e 53 64
e 53 69
e 53 71
e 53 74
e 53 75
e 53 83
e 53 84
e 53 86
e 53 90
e 53 91
e 53 92
e 53 95
e 54 60
e 54 62
e 54 65
e 54 69
e 54 70
e 54 72
e 54 74
e 54 76
e 54 79
e 54 84
e 54 86
e 54 88
e 54 91
e 54 92
e 54 96
e 54 99
e 54 100
e 55 57
e 55 58
e 55 59
e 55 61
e 55 63
e 55 68
e 55 69
e 55 74
e 55 75
e 55 77
e 55 79
e 55 87
e 55 90
e 55 92
e 55 93
e 55 99
e 55 100
e 56 62
e 56 64
e 56 68
e 56 71
e 56 72
e 56 75
e 56 80
e 56 81
e 56 82
e 56 89
e 56 90
e 56 97
e 56 100
e 57 58
e 57 63
e 57 65
e 57 66
e 57 68
e 57 70
e 57 71
e 57 72
e 57 82
e 57 84
e 57 87
e 57 89
e 57 92
e 57 93
e 57 95
e 57 97
e 57 99
e 58 60
e 58 61
e 58 63
e 58 71
e 58 83
e 58 91
e 58 93
e 58 94
e 58 96
e 58 98
e 58 100
e 59 63
e 59 64
e 59 65
e 59 67
e 59 69
e 59 73
e 59 76
e 59 77
e 59 80
e 59 83
e 59 87
e 59 99
e 60 61
e 60 62
e 60 64
e 60 69
e 60 72
e 60 79
e 60 84
e 60 85
e 60 86
e 60 89
e 60 91
e 60 93
e 60 100
e 61 62
e 61 63
e 61 66
e 61 68
e 61 69
e 61 74
e 61 92
e 61 93
e 61 94
e 61 97
e 62 67
e 62 71
e 62 73
e 62 76
e 62 77
e 62 79
e 62 85
e 62 88
e 62 89
e 62 94
e 62 95
e 62 98
e 62 99
e 63 64
e 63 71
e 63 72
e 63 73
e 63 77
e 63 80
e 63 87
e 63 93
e 63 95
e 63 96
e 64 67
e 64 71
e 64 80
e 64 81
e 64 82
e 64 83
e 64 85
e 64 86
e 64 87
e 64 88
e 64 89
e 64 97
e 64 98
e 64 100
e 65 66
e 65 68
e 65 75
e 65 80
e 65 83
e 65 85
e 65 87
e 65 88
e 65 93
e 65 97
e 65 100
e 66 68
e 66 74
e 66 76
e 66 77
e 66 79
e 66 89
e 66 93
e 66 95
e 67 69
e 67 73
e 67 83
e 67 86
e 67 94
e 67 98
e 68 70
e 68 71
e 68 73
e 68 76
e 68 79
e 68 86
e 68 90
e 68 96
e 69 70
e 69 71
e 69 72
e 69 81
e 69 83
e 69 85
e 69 86
e 69 89
e 69 93
e 69 95
e 70 72
e 70 75
e 70 79
e 70 83
e 70 90
e 70 92
e 70 93
e 70 98
e 70 99
e 71 72
e 71 85
e 71 88
e 71 89
e 71 90
e 71 100
e 72 74
e 72 77
e 72 78
e 72 82
e 72 88
e 72 90
e 72 91
e 72 97
e 72 100
e 73 74
e 73 81
e 73 88
e 73 89
e 73 90
e 73 93
e 73 95
e 73 96
e 73 99
e 73 100
e 74 77
e 74 78
e 74 80
e 74 82
e 74 87
e 74 92
e 74 94
e 74 95
e 74 96
e 74 98
e 74 100
e 75 79
e 75 81
e 75 82
e 75 85
e 75 87
e 75 95
e 75 96
e 75 97
e 76 80
e 76 81
e 76 82
e 76 84
e 76 85
e 76 86
e 76 90
e 76 94
e 76 95
e 76 97
e 76 100
e 77 78
e 77 81
e 77 85
e 77 90
e 77 92
e 77 98
e 77 99
e 78 79
e 78 89
e 78 92
e 78 95
e 79 82
e 79 84
e 79 85
e 79 89
e 79 95
e 79 97
e 79 98
e 79 99
e 80 97
e 80 99
e 81 82
e 81 85
e 81 99
e 82 86
e 82 87
e 82 94
e 82 95
e 82 96
e 82 100
e 83 97
e 83 99
e 83 100
e 84 87
e 84 88
e 84 92
e 84 94
e 84 100
e 85 90
e 85 91
e 85 92
e 85 95
e 85 97
e 86 87
e 86 92
e 86 95
e 86 96
e 86 97
e 86 99
e 86 100
e 87 88
e 87 89
e 87 92
e 87 96
e 87 97
e 87 98
e 87 99
e 87 100
e 88 92
e 88 93
e 88 94
e 88 96
e 89 92
e 89 94
e 89 96
e 90 92
e 90 93
e 90 95
e 90 100
e 91 92
e 91 94
e 91 97
e 91 99
e 92 94
e 92 98
e 94 95
e 94 98
e 95 97
e 95 98
e 96 100
e 97 99
e 97 100
e 98 99
e 98 100
